the best solution's fitness is 
141627
the time when getting the optimal solution is 
5755
the sequence of best solution is following
0 5 4 3 2327 2326 2325 2324 2323 2322 2321 2318 2312 2311 2307 2308 2309 2310 1312 1311 1313 1314 1315 1350 1351 1284 1283 1282 32 33 34 35 36 37 38 39 40 41 42 43 44 45 46 1281 1280 1279 1278 1277 1276 1275 1274 1273 1272 1271 1270 1269 1268 48 47 49 50 51 52 53 54 55 56 57 58 59 62 61 60 1267 1266 1265 1264 1263 1262 1261 1252 1251 1250 1249 1248 1247 1246 1245 1243 1244 1228 1227 1221 1220 1222 1219 1218 1255 1212 1211 1209 1208 1207 152 151 148 147 149 150 156 153 154 1203 1202 1197 1198 1199 1200 1194 1195 1196 1178 1179 1186 1187 169 167 166 165 162 160 161 163 164 168 184 185 186 187 188 189 190 191 192 193 194 195 196 132 131 134 137 138 139 140 141 78 79 80 81 82 83 84 85 86 87 88 89 90 91 92 127 124 123 219 205 206 207 208 217 216 209 210 211 212 215 213 238 239 240 244 245 248 249 250 251 252 247 246 253 258 259 260 261 262 263 264 265 266 267 273 272 274 275 276 282 283 308 309 310 311 312 316 305 307 306 284 285 287 290 291 304 303 302 301 300 397 396 395 394 393 392 391 390 389 388 383 387 386 385 324 326 327 328 329 330 331 332 335 334 333 368 369 370 371 372 373 374 375 1102 1101 1099 1098 1097 1096 1095 987 988 989 990 991 981 982 983 984 985 986 376 377 378 379 380 972 973 974 975 976 977 978 979 980 907 908 909 910 911 912 913 914 915 918 919 920 956 957 958 959 960 961 419 420 421 422 423 424 425 426 427 428 429 430 431 433 441 442 443 444 445 446 447 448 449 450 451 452 453 487 488 489 490 497 498 499 527 503 504 522 525 524 535 537 538 540 541 539 543 542 549 548 550 551 552 553 554 555 516 515 514 568 569 570 571 580 581 582 579 577 576 575 606 605 604 603 602 601 600 584 585 583 586 587 588 589 590 483 482 484 485 486 481 480 479 478 471 470 467 468 950 951 952 955 954 953 947 930 929 931 932 933 789 790 791 792 793 806 794 795 796 797 798 804 810 809 770 769 832 831 830 827 825 824 823 888 889 887 886 885 861 863 862 1697 1698 1711 1719 1720 1721 1665 1666 1664 1663 1660 1661 1662 1668 1669 1667 1670 1671 1672 1673 1634 1632 1631 1677 1674 1675 1676 1683 1684 1685 866 868 869 870 871 872 873 874 875 876 877 878 1010 1009 1008 1007 1006 1005 1004 1003 1002 1077 1076 1075 1078 1079 1080 1074 1073 1072 1071 1070 1069 1067 1068 1123 1122 1121 1120 1119 1114 1112 1111 1108 1109 1133 1130 1129 1134 1135 1136 1137 1138 1139 1140 1141 1142 1143 1144 1145 1146 358 357 356 348 349 355 354 353 1147 1148 1149 1150 1151 1152 1153 1154 1155 1156 1157 1158 1159 1160 1161 1162 1164 1163 1231 1230 1232 1234 1235 1236 1237 1043 1044 1045 1046 1050 1049 1051 1053 1052 1048 1047 1039 1040 1042 1041 1038 1037 1036 1035 1034 1033 1032 1030 1031 1029 1028 1061 1060 1059 1058 1057 1065 1066 1064 1063 1062 1027 1026 1025 1024 1023 1022 1021 1020 1017 1018 1019 1553 1554 1552 1551 1550 1549 1546 1569 1568 1567 1566 1572 1571 1570 1536 1537 1540 1539 1478 1479 1480 1477 1476 1469 1466 1465 1464 1463 1462 1437 1436 1435 1434 1433 1432 1431 1430 1429 1428 1427 1426 1425 1424 1421 1420 1419 1418 1417 1412 1413 1414 1415 1416 1398 1394 1391 1390 1389 1388 1387 1386 1385 1384 1383 1382 1381 1380 1379 1378 1377 1376 1375 1374 1373 1360 1359 1358 1357 1356 1355 1354 1353 1348 1346 1345 1339 1337 1334 1332 1331 1330 1329 1506 1505 1504 1503 1509 1507 1508 1511 2257 2255 2256 2258 2259 2261 2262 2268 2269 2270 2271 2272 2276 2277 2278 2279 2280 2281 2282 2283 2284 2342 2341 2340 2337 2372 2373 2377 2378 2379 2380 2381 2382 2383 2384 2385 2386 2387 2388 2389 2390 2391 
0 1 2376 2375 2374 2371 2370 2369 2368 2367 2365 2364 2366 2344 2343 2347 2348 2349 2350 2351 2352 2353 2354 2355 2161 2162 2163 2164 2158 2157 2165 2166 2167 2168 2169 2170 2171 2172 2173 2174 2175 2176 2177 2178 2179 2180 2181 2182 2183 2184 2185 2186 2187 2188 2189 2190 2191 2192 2193 2194 2136 2135 2195 2196 2197 2198 2199 2200 2201 2202 2203 2204 2205 2206 2207 2208 2209 2210 2211 2212 2215 2214 2213 1585 1586 1587 1588 1589 1591 1590 1621 1620 1619 1618 1617 1616 1615 1614 1613 1611 1612 2053 2055 2056 2057 2058 2059 2060 2061 2062 2063 2064 2065 2066 2067 2068 2069 2070 2071 2074 2073 2072 1608 1592 1593 1594 1595 1596 1597 1598 1599 1600 1601 1602 1603 1604 1605 1606 2127 2126 2125 2124 2123 2122 2121 2120 2119 2118 2117 2116 2115 2112 2113 2114 2075 2076 2077 2078 2079 2080 2081 2082 2083 2084 2085 2086 2087 2103 2107 2108 2111 2110 2109 2106 2105 2104 2102 2101 2100 2099 2098 2097 2096 2095 2094 2093 2091 2092 2088 2089 2090 2019 2022 2021 2026 2023 2024 2025 2028 2027 2020 2018 2017 2016 2015 2014 2013 2012 2011 2030 2031 2029 2032 2033 2034 2035 2036 2037 2038 2039 2040 2041 2042 2043 1649 1650 1651 2004 2005 2006 2007 2008 2009 2010 1922 1921 1923 1924 1928 1927 1930 1935 1936 1937 1938 1939 1940 1941 1942 1943 1944 1945 1946 1947 1948 1889 1892 1890 1886 1887 1888 1949 1950 1951 1952 1953 1954 1955 1956 1958 1959 1957 1968 1969 1982 1983 1986 1988 1987 1985 1984 1981 1980 1979 1978 1977 1976 1971 1970 1972 1876 1973 1975 1974 1869 1868 1867 1866 1865 1864 1863 1862 1861 1860 1859 1858 1857 1856 1855 1854 1853 1993 1994 1996 1997 1998 1999 2000 2001 2002 2003 1847 1848 1851 1850 1849 1844 1843 1842 1840 1839 1837 1832 1831 1830 1829 1828 1827 1826 1825 1824 1823 1822 1820 1819 1815 1809 1816 1817 1818 1767 1768 1769 1770 1771 1776 1777 1778 1779 1780 1781 1782 1783 1784 1785 1786 1787 1788 1789 1790 1791 644 643 642 641 640 639 638 637 632 631 630 629 628 627 626 717 716 729 730 733 714 713 715 704 705 706 707 708 709 710 711 712 737 738 744 745 746 747 748 749 750 751 752 753 754 755 756 757 760 759 758 777 778 779 780 776 775 774 768 773 772 771 808 811 812 813 814 815 816 817 818 819 820 821 822 826 828 829 835 834 833 838 840 841 842 843 844 845 668 670 671 665 664 672 673 674 675 676 677 678 679 680 681 682 683 684 685 686 653 654 655 656 657 658 659 660 661 1752 1751 1749 1748 1747 1746 1744 1743 1742 1745 1737 1736 1735 1738 1739 1740 1741 846 847 848 849 850 851 853 854 855 856 857 858 859 860 884 883 882 881 880 879 1011 1012 1013 1014 1015 1016 1555 1556 1557 1558 1559 1560 1561 1562 1563 1564 1565 1573 1574 1575 1576 1679 1678 1680 1681 1682 867 864 865 1686 1687 1688 1689 1690 1691 1692 1693 1694 1695 1696 1699 1700 1702 1703 1704 1705 1706 1707 1708 1709 1712 1716 1717 1718 1723 1724 1722 1725 1728 1727 1726 1658 1659 1657 1656 1647 1646 1645 1644 1643 1642 1641 1640 1639 1638 1637 1636 1635 1633 1630 1629 1628 1627 1626 1625 1624 1623 1622 1578 1577 1579 1580 1581 1582 1583 1584 1530 1531 1532 1533 1534 1535 1538 1541 1542 1543 1544 1545 1547 1548 1457 1456 1455 1454 1453 1452 1451 1450 1449 1448 1447 1446 1443 1442 1441 1440 1439 1438 1461 1460 1444 1445 1458 1459 1472 1473 1474 1475 1471 1470 1468 1467 1481 1482 1483 1484 1485 1486 1487 1488 1489 1490 1491 1492 1493 1494 1495 1496 1497 1498 1499 1500 1501 1502 1510 1512 1513 1514 1515 1516 1517 1519 1518 1520 1521 1522 1523 1524 1525 1526 1527 1528 1529 2216 2217 2218 2219 2220 2221 2222 2223 2224 2225 2226 2227 2228 2229 2230 2231 2232 2233 2234 2235 2236 2237 2238 2239 2240 2241 2242 2243 2244 2245 2246 2247 2248 2249 2250 2251 2252 2253 2254 2260 2263 2264 2265 2267 2266 1328 1327 1326 1325 1324 1333 1336 1335 1408 1411 1410 1409 1407 1406 1399 1400 1405 1404 1403 1341 1340 1338 1322 1318 1317 1316 1319 1320 1321 1323 2306 2305 2304 2303 2302 2301 2300 2299 2298 2297 2294 2293 2292 2273 2274 2275 2289 2288 2285 2286 2287 2290 2291 2295 2296 2313 2314 2315 2316 2317 2320 2319 1309 1310 1307 1308 1306 1305 1304 1303 1302 1301 1300 1299 1298 1297 1296 18 17 16 15 14 13 12 6 7 
0 8 9 10 11 19 20 21 22 23 24 25 26 27 28 29 31 30 1295 1294 1293 1292 1291 1290 1289 1288 1287 1285 1286 1352 1349 1347 1344 1343 1342 1402 1401 1365 1364 1363 1362 1361 1372 1371 1370 1369 1368 1367 1366 1393 1392 1395 1396 1397 1422 1423 1238 1239 1240 1241 1242 1233 1229 1226 1225 1223 1224 1166 1165 1171 1170 1167 1168 1169 1172 1173 1174 1175 1176 1177 1180 1181 1182 1183 1184 1185 174 173 172 171 178 177 176 175 352 350 351 257 256 255 254 181 182 183 180 179 170 1188 1189 1190 1193 1191 1192 158 159 157 1201 155 1204 1205 1206 1213 1214 1215 1216 1217 1254 1253 1256 1257 1259 1260 1258 1210 63 64 65 66 67 68 69 70 71 72 73 74 75 76 77 142 143 144 145 146 136 135 133 197 198 199 200 201 202 203 204 125 126 130 129 128 93 94 95 96 97 98 99 100 101 102 103 104 105 106 107 108 109 110 111 112 113 114 115 116 117 118 119 120 121 122 220 218 221 222 223 224 225 226 214 227 228 229 230 231 232 233 234 235 236 237 241 242 243 268 269 270 271 278 280 279 277 281 286 288 289 292 293 294 295 296 297 298 299 398 399 400 401 402 403 404 405 406 407 408 409 410 411 412 413 414 415 416 418 417 438 439 440 437 436 435 434 432 458 457 456 455 454 462 461 460 459 463 464 466 465 469 472 477 476 475 474 473 943 942 941 945 944 949 948 946 926 928 927 925 924 923 922 921 917 916 962 963 964 965 966 967 968 969 970 971 382 381 384 325 323 322 321 320 319 318 317 315 314 313 339 340 338 337 336 341 342 343 344 345 346 347 359 360 361 362 363 364 365 366 367 1103 1104 1105 1106 1107 1110 1132 1131 1127 1128 1054 1055 1056 1125 1126 1124 1115 1116 1117 1118 1113 1089 1090 1091 1100 1092 1093 1094 1087 1088 1086 1085 1084 1083 1082 1081 1001 1000 999 998 997 996 995 994 993 992 906 905 904 903 902 901 900 899 898 897 896 894 893 892 891 890 895 801 800 799 802 803 805 807 781 782 783 784 785 786 787 788 936 935 934 940 939 938 937 593 592 591 594 595 596 597 598 599 742 740 741 743 739 736 735 734 732 731 728 727 726 725 724 723 722 721 616 615 614 613 612 611 610 608 607 609 574 573 578 572 511 510 509 508 507 505 506 502 501 495 493 492 491 494 496 500 528 526 529 530 531 532 533 534 536 544 545 546 547 523 517 518 519 520 521 512 513 567 566 565 564 563 562 556 557 558 561 559 560 617 618 619 620 621 622 625 624 623 720 719 718 701 702 703 700 699 698 697 696 635 634 633 636 695 694 693 692 691 690 689 688 687 652 651 650 649 648 647 646 645 1793 1794 1792 1795 1796 1797 1798 1799 1800 1801 1802 1803 1804 1805 1806 1807 1808 1810 1811 1814 1812 1813 1870 1871 1872 1873 1874 1875 1877 1878 1879 1880 1881 1882 1883 1884 1885 1891 1893 1894 1895 1896 1897 1898 1899 1900 1901 1902 1903 1904 1905 1906 1907 1908 1909 1910 1911 1912 1913 1914 1915 1916 1919 1920 1918 1917 1925 1926 1929 1931 1932 1933 1934 1960 1961 1962 1963 1964 1965 1966 1967 1989 1990 1991 1992 1995 1852 1841 1838 1836 1835 1834 1833 1764 1763 1765 1821 1766 1773 1772 1774 1775 1757 1758 1762 1761 1760 1759 1756 1755 1754 1753 1750 662 663 666 667 669 761 762 763 764 765 767 766 839 837 836 852 1701 1710 1713 1714 1715 1734 1733 1732 1731 1730 1729 1845 1846 1652 1653 1654 1655 1648 2044 2045 2046 2047 2048 2049 2050 2051 2052 2054 1610 1609 1607 2128 2129 2130 2131 2132 2133 2134 2137 2138 2139 2140 2141 2142 2143 2144 2145 2146 2147 2149 2148 2150 2151 2152 2153 2154 2155 2156 2159 2160 2356 2357 2358 2359 2360 2361 2363 2362 2346 2345 2339 2338 2336 2335 2334 2333 2332 2331 2330 2329 2328 2 

the actuall costs is 141627
the using frequency of each operators in EAX is following
the percentage of or-insert is 0.592697
the percentage of or-swap is 0.407303
all percentage of each operator is following 
0.578274  0.0111279  0.00156655  0.00102636  0.000432152  5.4019e-05  0.000216076  
0.170484  0.0352204  0.00885912  0.00264693  0.00145851  0.0011344  0.000486171  
0.0149633  0.0243086  0.0120462  0.00594209  0.0022688  0.0011344  0.000486171  
0.00280899  0.0121543  0.0107498  0.00821089  0.00351124  0.00275497  0.00205272  
0.00135048  0.00578003  0.00745462  0.00702247  0.00480769  0.00302506  0.00372731  
0.000486171  0.00232282  0.00378133  0.00459162  0.00550994  0.00594209  0.00410545  
0.000594209  0.0011344  0.0019987  0.00307908  0.00496975  0.00507779  0.00686041  


